97 100
82 21 1
67 4 1
75 62 1
12 41 1
5 70 1
24 69 1
74 5 1
93 48 1
99 5 1
8 19 1
12 9 1
85 18 1
67 15 1
3 96 1
22 24 1
30 49 1
79 36 1
72 31 1
44 66 1
95 41 1
98 20 1
28 86 1
85 40 1
77 46 1
91 14 1
57 90 1
82 41 1
2 73 1
38 80 1
50 12 1
31 67 1
100 39 1
1 92 1
67 45 1
100 27 1
72 29 1
83 19 1
78 40 1
86 13 1
86 30 1
74 10 1
97 47 1
22 72 1
74 43 1
72 13 1
88 16 1
76 68 1
70 17 1
79 28 1
89 46 1
91 90 1
74 3 1
94 4 1
97 38 1
78 22 1
86 1 1
74 92 1
68 91 1
70 16 1
10 72 1
78 42 1
53 56 1
71 22 2
100 31 1
83 4 1
50 33 1
79 39 1
67 14 1
95 27 1
96 18 2
17 8 1
81 12 1
29 81 1
29 71 1
95 14 1
75 8 1
60 84 1
84 11 1
87 32 1
77 16 1
4 8 1
90 25 1
79 60 1
87 36 2
71 43 1
69 50 1
94 2 1
71 17 1
75 89 1
92 37 1
13 5 1
96 60 1
68 48 1
48 19 1
97 15 1
91 47 1
43 97 1
100 100 
100 100 
100 100 
100 100 
100 100 
100 100 
100 100 
100 100 
100 100 
100 100 
100 100 
100 100 
100 100 
100 100 
100 100 
100 100 
100 100 
100 100 
100 100 
100 100 
100 100 
100 100 
100 100 
100 100 
100 100 
100 100 
100 100 
100 100 
100 100 
100 100 
100 100 
100 100 
100 100 
100 100 
100 100 
100 100 
100 100 
100 100 
100 100 
100 100 
100 100 
100 100 
100 100 
100 100 
100 100 
100 100 
100 100 
100 100 
100 100 
100 100 
100 100 
100 100 
100 100 
100 100 
100 100 
100 100 
100 100 
100 100 
100 100 
100 100 
100 100 
100 100 
100 100 
100 100 
100 100 
100 100 
100 100 
100 100 
100 100 
100 100 
100 100 
100 100 
100 100 
100 100 
100 100 
100 100 
100 100 
100 100 
100 100 
100 100 
100 100 
100 100 
100 100 
100 100 
100 100 
100 100 
100 100 
100 100 
100 100 
100 100 
100 100 
100 100 
100 100 
100 100 
100 100 
100 100 
100 100 
100 100 
100 100 
100 100 
